(set-logic QF_FP)
(set-info :source |Random FP created by PyMPF|)
(set-info :category random)
(set-info :status unsat)
(declare-const x Float32)
(assert (= x (fp #b0 #b00000000 #b00111101101111100010111)))
(declare-const y Float32)
(assert (= y (fp #b1 #b11111111 #b00100100000100111101011)))
(declare-const z Float32)
(assert (= z (fp #b1 #b10010001 #b11011001101010110010000)))
(declare-const result Float32)
(assert (= result (fp.fma RTP x y z)))
(assert (not (= result (fp #b1 #b11111111 #b11111111111111111111111))))
(check-sat)
(exit)
